\ Model ajuste
\ LP format - for model browsing. Use MPS format to capture full model detail.
Minimize
  - 3.1237406708537866e+06 coef_ajuste + 1.5602650085878042e+06 Constant + [
   3.1269546279121502e+06 coef_ajuste ^2 ] / 2 
Subject To
Bounds
 coef_ajuste <= 1
 Constant = 1
End
